1
1364.00    964.00    768.00 0.00
20
310    179    189 2 2
207    174    31  2 2 
336    196    125 4 4
498    426    243 1 1
257    250    52  2 2
280    286    106 1 1
441    136    136 1 1 
212    170    38  1 1
472    121    24  3 3
379    291    76  3 3
231    111    98 5  5
348    248    19 2 2
128    128    130 3 3
128    128    130 2 2
205    62    54 1 1 
256    98    101 5 5
172    45    27 3 3
351    334    212 4  4
610    364    318 1 1
215    230    118 3 3
